;test regex "(jan | feb | mar | apr | may | jun | jul | aug | sep | oct | nov | dec)\.(\s+),(\s+)(\d{4})"
(declare-const X String)
(assert (str.in_re X (re.++ (re.++ (str.to_re "\u{22}") (re.++ (re.union (re.union (re.union (re.union (re.union (re.union (re.union (re.union (re.union (re.union (re.union (re.++ (str.to_re "j") (re.++ (str.to_re "a") (re.++ (str.to_re "n") (str.to_re " ")))) (re.++ (str.to_re " ") (re.++ (str.to_re "f") (re.++ (str.to_re "e") (re.++ (str.to_re "b") (str.to_re " ")))))) (re.++ (str.to_re " ") (re.++ (str.to_re "m") (re.++ (str.to_re "a") (re.++ (str.to_re "r") (str.to_re " ")))))) (re.++ (str.to_re " ") (re.++ (str.to_re "a") (re.++ (str.to_re "p") (re.++ (str.to_re "r") (str.to_re " ")))))) (re.++ (str.to_re " ") (re.++ (str.to_re "m") (re.++ (str.to_re "a") (re.++ (str.to_re "y") (str.to_re " ")))))) (re.++ (str.to_re " ") (re.++ (str.to_re "j") (re.++ (str.to_re "u") (re.++ (str.to_re "n") (str.to_re " ")))))) (re.++ (str.to_re " ") (re.++ (str.to_re "j") (re.++ (str.to_re "u") (re.++ (str.to_re "l") (str.to_re " ")))))) (re.++ (str.to_re " ") (re.++ (str.to_re "a") (re.++ (str.to_re "u") (re.++ (str.to_re "g") (str.to_re " ")))))) (re.++ (str.to_re " ") (re.++ (str.to_re "s") (re.++ (str.to_re "e") (re.++ (str.to_re "p") (str.to_re " ")))))) (re.++ (str.to_re " ") (re.++ (str.to_re "o") (re.++ (str.to_re "c") (re.++ (str.to_re "t") (str.to_re " ")))))) (re.++ (str.to_re " ") (re.++ (str.to_re "n") (re.++ (str.to_re "o") (re.++ (str.to_re "v") (str.to_re " ")))))) (re.++ (str.to_re " ") (re.++ (str.to_re "d") (re.++ (str.to_re "e") (str.to_re "c"))))) (re.++ (str.to_re ".") (re.+ (re.union (str.to_re " ") (re.union (str.to_re "\u{0b}") (re.union (str.to_re "\u{0a}") (re.union (str.to_re "\u{0d}") (re.union (str.to_re "\u{09}") (str.to_re "\u{0c}")))))))))) (re.++ (str.to_re ",") (re.++ (re.+ (re.union (str.to_re " ") (re.union (str.to_re "\u{0b}") (re.union (str.to_re "\u{0a}") (re.union (str.to_re "\u{0d}") (re.union (str.to_re "\u{09}") (str.to_re "\u{0c}"))))))) (re.++ ((_ re.loop 4 4) (re.range "0" "9")) (str.to_re "\u{22}")))))))
; sanitize danger characters:  < > ' " &
(assert (not (str.in_re X (re.++ re.all (re.union (str.to_re "\u{3c}") (str.to_re "\u{3e}") (str.to_re "\u{27}") (str.to_re "\u{22}") (str.to_re "\u{26}")) re.all))))
(assert (< 20 (str.len X)))
(check-sat)
(get-model)